Reading model...
...model read.
creating competitive generators file...
...competitive generators recorded.
Loading data...
.. day-ahead data with real-time VRE data read.
Compiling instance...
...instance created.
Creating Offer Mitigation (model will solve as dispatch if TRUE)...
...storage offer mitigation file created
LPStorage
running bound DA offers as LP
Solving...

Welcome to IBM(R) ILOG(R) CPLEX(R) Interactive Optimizer 12.9.0.0
  with Simplex, Mixed Integer & Barrier Optimizers
5725-A06 5725-A29 5724-Y48 5724-Y49 5724-Y54 5724-Y55 5655-Y21
Copyright IBM Corp. 1988, 2019.  All Rights Reserved.

Type 'help' for a list of available commands.
Type 'help' followed by a command name for more
information on commands.

CPLEX> Logfile 'cplex.log' closed.
Logfile 'C:\Users\Luke\Desktop\competitiveMPEC_1.16\logs\tmpykfncfo_.cplex.log' open.
CPLEX> New value for parallel optimization mode: -1
CPLEX> New value for mixed integer optimality gap tolerance: 0.01
CPLEX> New value for feasibility tolerance: 1e-05
CPLEX> New value for deterministic time limit in ticks: 250000
CPLEX> Problem 'C:\Users\Luke\Desktop\competitiveMPEC_1.16\logs\tmphikcnyyd.pyomo.lp' read.
Read time = 0.05 sec. (2.99 ticks)
CPLEX> Problem name         : C:\Users\Luke\Desktop\competitiveMPEC_1.16\logs\tmphikcnyyd.pyomo.lp
Objective sense      : Minimize
Variables            :   25839  [Nneg: 889,  Box: 21470,  Free: 3480]
Objective nonzeros   :    2537
Linear constraints   :   27297  [Less: 13813,  Greater: 4416,  Equal: 9068]
  Nonzeros           :   87372
  RHS nonzeros       :   12160

Variables            : Min LB: -5000.000        Max UB: 5000.000       
Objective nonzeros   : Min   : 1.000000         Max   : 124.0997       
Linear constraints   :
  Nonzeros           : Min   : 0.8500000        Max   : 3000.000       
  RHS nonzeros       : Min   : 0.2250000        Max   : 90000.00       
CPLEX> CPXPARAM_Parallel                                -1
CPXPARAM_Simplex_Tolerances_Feasibility          1.0000000000000001e-05
CPXPARAM_DetTimeLimit                            250000
CPXPARAM_MIP_Tolerances_MIPGap                   0.01
Parallel mode: opportunistic, using up to 24 threads for concurrent optimization.
Tried aggregator 1 time.
LP Presolve eliminated 22001 rows and 17622 columns.
Aggregator did 748 substitutions.
Reduced LP has 4548 rows, 7469 columns, and 19833 nonzeros.
Presolve time = 0.05 sec. (27.48 ticks)

Iteration log . . .
Iteration:     1   Dual objective     =        -93931.300000
Perturbation started.
Iteration:   101   Dual objective     =        -93931.300000
Iteration:   404   Dual objective     =        -93930.864660
Iteration:   726   Dual objective     =        -92500.657501
Iteration:  1067   Dual objective     =        -92500.341163
Iteration:  1396   Dual objective     =        -92500.076226
Iteration:  1771   Dual objective     =        -92499.771280
Iteration:  2087   Dual objective     =        -53998.171454
Iteration:  2382   Dual objective     =        -53998.114969
Iteration:  2637   Dual objective     =        -39392.564542
Iteration:  2858   Dual objective     =        176398.942503
Iteration:  3081   Dual objective     =        276404.071041
Iteration:  3351   Dual objective     =        276404.078786
Iteration:  3674   Dual objective     =        280322.485348
Iteration:  4099   Dual objective     =        280322.490946
Removing perturbation.

Dual simplex solved model.


Dual simplex - Optimal:  Objective =  2.8032457791e+05
Solution time =    0.13 sec.  Iterations = 4111 (0)
Deterministic time = 84.63 ticks  (677.03 ticks/sec)

CPLEX> Solution written to file 'C:\Users\Luke\Desktop\competitiveMPEC_1.16\logs\tmpnbd1h529.cplex.sol'.
CPLEX> Exporting results... 
